RLW02
Position Depot: Center
Horizon for Depot: Large
Position of customers: Random
Distribution of the demand: Medium
Width of time windows: Wide
Distribution of the service: Large

VEHICLE 
NUMBER 	 CAPACITY 
 5 	 	 134 
 
CUSTOMER
CUST NO. 	 XCOORD.  	 YCOORD. 	 DEMAND 	 READY TIME 	 DUE DATE 	 SERVICE TIME 
 0 	 	 500 	 	 500 	 	 0 	 	 0 	 	 4097 	 	 0 
  1 	 	 303 	 	 516 	 	 6 	 	 3123 	 	 3467 	 	 102 
  2 	 	 160 	 	 205 	 	 86 	 	 920 	 	 1293 	 	 154 
  3 	 	 218 	 	 272 	 	 7 	 	 2579 	 	 3052 	 	 162 
  4 	 	 786 	 	 545 	 	 1 	 	 559 	 	 827 	 	 121 
  5 	 	 170 	 	 932 	 	 5 	 	 2491 	 	 2950 	 	 132 
  6 	 	 376 	 	 346 	 	 5 	 	 1701 	 	 2151 	 	 117 
  7 	 	 593 	 	 564 	 	 6 	 	 116 	 	 524 	 	 109 
  8 	 	 389 	 	 886 	 	 59 	 	 837 	 	 1211 	 	 114 
  9 	 	 629 	 	 601 	 	 7 	 	 381 	 	 873 	 	 170 
  10 	 	 229 	 	 579 	 	 5 	 	 2813 	 	 3164 	 	 172 
  11 	 	 547 	 	 947 	 	 5 	 	 770 	 	 993 	 	 137 
  12 	 	 12 	 	 628 	 	 2 	 	 3258 	 	 3516 	 	 105 
  13 	 	 192 	 	 245 	 	 10 	 	 3307 	 	 3589 	 	 114 
  14 	 	 461 	 	 171 	 	 3 	 	 631 	 	 1053 	 	 148 
  15 	 	 825 	 	 993 	 	 5 	 	 1853 	 	 2297 	 	 140 
  16 	 	 102 	 	 212 	 	 1 	 	 335 	 	 540 	 	 200 
  17 	 	 947 	 	 302 	 	 6 	 	 3485 	 	 3885 	 	 140 
  18 	 	 408 	 	 64 	 	 6 	 	 3605 	 	 3862 	 	 132 
  19 	 	 220 	 	 803 	 	 9 	 	 3650 	 	 4032 	 	 133 
  20 	 	 187 	 	 554 	 	 4 	 	 1826 	 	 2210 	 	 110 
  21 	 	 839 	 	 287 	 	 8 	 	 494 	 	 988 	 	 182 
  22 	 	 347 	 	 963 	 	 5 	 	 169 	 	 536 	 	 123 
  23 	 	 324 	 	 811 	 	 69 	 	 1827 	 	 2198 	 	 112 
  24 	 	 557 	 	 626 	 	 10 	 	 591 	 	 916 	 	 128 
  25 	 	 20 	 	 827 	 	 2 	 	 1954 	 	 2436 	 	 109 
  26 	 	 746 	 	 76 	 	 1 	 	 2190 	 	 2573 	 	 163 
  27 	 	 480 	 	 883 	 	 56 	 	 2567 	 	 2806 	 	 165 
  28 	 	 972 	 	 681 	 	 3 	 	 977 	 	 1340 	 	 139 
  29 	 	 109 	 	 726 	 	 10 	 	 2272 	 	 2536 	 	 126 
  30 	 	 145 	 	 558 	 	 52 	 	 2347 	 	 2830 	 	 195 
  31 	 	 706 	 	 210 	 	 7 	 	 1181 	 	 1405 	 	 191 
  32 	 	 882 	 	 683 	 	 2 	 	 3449 	 	 3869 	 	 170 
  33 	 	 256 	 	 554 	 	 9 	 	 3610 	 	 3815 	 	 150 
  34 	 	 856 	 	 346 	 	 8 	 	 13 	 	 426 	 	 173 
  35 	 	 19 	 	 63 	 	 10 	 	 1000 	 	 1264 	 	 117 
  36 	 	 265 	 	 848 	 	 10 	 	 3141 	 	 3429 	 	 178 
  37 	 	 91 	 	 239 	 	 3 	 	 2370 	 	 2826 	 	 183 
  38 	 	 942 	 	 448 	 	 90 	 	 1688 	 	 2010 	 	 140 
  39 	 	 506 	 	 703 	 	 4 	 	 3191 	 	 3563 	 	 171 
  40 	 	 625 	 	 928 	 	 5 	 	 1685 	 	 1909 	 	 109 
  41 	 	 781 	 	 523 	 	 6 	 	 1075 	 	 1536 	 	 198 
  42 	 	 811 	 	 904 	 	 5 	 	 2213 	 	 2695 	 	 147 
  43 	 	 169 	 	 718 	 	 8 	 	 564 	 	 827 	 	 177 
  44 	 	 983 	 	 526 	 	 3 	 	 1112 	 	 1440 	 	 154 
  45 	 	 222 	 	 964 	 	 1 	 	 3696 	 	 4097 	 	 191 
  46 	 	 652 	 	 356 	 	 3 	 	 99 	 	 567 	 	 111 
  47 	 	 827 	 	 261 	 	 5 	 	 549 	 	 820 	 	 199 
  48 	 	 631 	 	 862 	 	 93 	 	 457 	 	 884 	 	 130 
  49 	 	 994 	 	 871 	 	 7 	 	 3112 	 	 3396 	 	 141 
  50 	 	 448 	 	 129 	 	 8 	 	 1605 	 	 1866 	 	 155 
 